5 6 62
3 3 1 4 1 4 2 16 27 30 46 46 62 
3 1 1 1 2 1 3 18 27 27 43 43 53 
4 2 1 2 2 3 2 3 3 10 28 28 38 38 45 45 59 
3 5 1 5 2 2 3 12 23 23 39 40 57 
5 2 1 3 1 3 1 3 2 2 3 0 10 10 14 14 16 27 35 38 40 
5 5 1 1 1 1 1 4 1 4 1 0 12 12 14 14 18 18 28 28 30 
